(set-option :produce-models true)
(set-logic QF_UF)
(declare-fun p3() Bool)
(declare-fun p16() Bool)
(declare-fun p27() Bool)
(declare-fun p5() Bool)
(declare-fun p19() Bool)
(declare-fun p24() Bool)
(declare-fun p4() Bool)
(declare-fun p17() Bool)
(declare-fun p15() Bool)
(declare-fun p13() Bool)
(declare-fun p20() Bool)
(declare-fun p26() Bool)
(declare-fun p25() Bool)
(declare-fun p8() Bool)
(declare-fun p28() Bool)
(declare-fun p10() Bool)
(declare-fun p0() Bool)
(declare-fun p18() Bool)
(declare-fun p11() Bool)
(declare-fun p29() Bool)
(declare-fun p6() Bool)
(declare-fun p23() Bool)
(declare-fun p14() Bool)
(declare-fun p1() Bool)
(declare-fun p22() Bool)
(declare-fun p21() Bool)
(declare-fun p12() Bool)
(declare-fun p9() Bool)
(declare-fun p2() Bool)
(declare-fun p7() Bool)
(assert
(and (or p3 p16 p16) (or (not p27) (not p5) p19) (or p24 (not p4) (not p19)) (or (not p24) p17 p15) (or p13 (not p20) p4) (or (not p26) (not p25) p24) (or (not p8) (not p24) (not p24)) (or (not p27) (not p28) (not p26)) (or (not p10) p13 (not p0)) (or (not p24) (not p18) (not p11)) (or p4 (not p29) p29) (or (not p20) p6 p15) (or (not p5) p18 p24) (or p23 (not p24) (not p4)) (or p27 (not p14) p18) (or (not p5) p19 (not p11)) (or p24 p1 p16) (or p3 (not p26) (not p23)) (or p27 p15 (not p4)) (or p3 p24 (not p0)) (or (not p27) p26 p16) (or p26 p24 p10) (or (not p10) p5 (not p28)) (or (not p27) (not p27) p22) (or p18 p16 p27) (or (not p0) p22 (not p14)) (or p21 (not p12) p4) (or p15 p9 p25) (or p0 p24 p15) (or p2 (not p18) p5) (or p7 p0 p16) (or (not p28) (not p20) p29) (or p7 (not p26) (not p7)) (or (not p13) (not p6) (not p3)) (or p20 p5 (not p21)) (or (not p16) (not p5) (not p6)) (or p19 p2 p18) (or (not p10) (not p27) (not p6)) (or (not p19) (not p1) p1) (or p5 p20 (not p18)) (or p24 p7 (not p24)) (or (not p22) p26 (not p4)) (or p1 (not p19) (not p8)) (or (not p7) p0 p7) (or (not p0) (not p20) (not p22)) (or (not p3) p7 (not p2)) (or p20 (not p4) p2) (or p22 (not p22) (not p21)) (or p13 (not p22) (not p21)) (or (not p15) p16 (not p11)) (or (not p5) (not p19) (not p5)) (or (not p6) (not p6) (not p0)) (or (not p11) p29 (not p9)) (or (not p27) (not p27) (not p9)) (or p17 (not p15) (not p11)) (or p4 p7 (not p12)) (or p20 (not p5) p1) (or p1 p10 (not p15)) (or p3 p15 (not p5)) (or (not p14) (not p24) (not p1)) (or p11 p7 (not p3)) (or (not p5) (not p27) (not p28)) (or p27 (not p27) (not p12)) (or (not p23) (not p29) (not p22)) (or (not p22) (not p21) p27) (or (not p28) (not p3) (not p5)) (or (not p27) (not p28) p2) (or (not p4) p10 p25) (or (not p23) p29 (not p6)) (or p22 (not p26) p27) (or p6 p7 p5) (or p29 (not p7) (not p8)) (or p21 p21 (not p3)) (or p0 (not p29) p6) (or (not p11) (not p13) (not p13)) (or (not p16) (not p22) p17) (or (not p26) p23 p22) (or p25 (not p8) p29) (or p4 p1 p8) (or p10 p13 (not p2)) (or p16 p17 (not p28)) (or p18 (not p21) p4) (or (not p10) (not p24) (not p27)) (or (not p12) (not p0) (not p1)) (or p21 (not p21) (not p19)) (or p5 (not p23) p4) (or p29 (not p29) (not p4)) (or p14 p15 p4) (or (not p8) (not p6) p9) (or (not p20) p4 (not p9)) (or (not p23) (not p2) (not p14)) (or (not p1) p14 p16) (or p17 (not p2) (not p9)) (or p10 (not p11) (not p23)) (or (not p15) p7 p21) (or p2 (not p26) p12) (or p11 (not p16) (not p14)) (or (not p25) (not p22) (not p21)) (or p23 p25 p13) (or p9 p1 (not p23)) (or p12 p1 (not p26)) (or p7 (not p20) (not p10)) (or p20 p3 p11) (or p10 (not p10) (not p8)) (or (not p19) (not p18) (not p17)) (or (not p19) (not p18) p21) (or (not p3) (not p18) (not p11)) (or (not p18) (not p2) p26) (or (not p25) (not p0) p11) (or p29 (not p13) (not p2)) (or (not p6) p21 p8) (or (not p12) p8 p8) (or (not p16) p15 p9) (or (not p29) p24 (not p9)) (or p8 (not p27) (not p15)) (or (not p12) p21 (not p22)) (or (not p27) p4 p2) (or p16 p8 p4) (or p10 p4 (not p27)) (or p12 p14 (not p4)) (or p28 p2 p5) (or p11 p15 p14) (or p21 p25 (not p22)) (or (not p22) (not p26) p0) (or (not p11) (not p5) (not p10)) (or (not p7) p21 (not p15)) (or (not p24) (not p13) (not p19)) (or p10 p14 p20))
)
(check-sat)
(get-model)
